17	4
10	11	13	12	
0	0	0	0	0	3	2	3	4	
5	0	0	0	9	3	5	12	15	
2	9	0	0	0	2	13	14	
5	0	0	0	3	3	6	8	17	
8	0	0	0	10	2	10	17	
200	0	0	7	0	3	7	9	16	
225	0	0	0	10	3	10	17	17	
150	0	0	8	0	1	17	
25	10	0	0	0	3	11	17	17	
250	0	0	10	0	3	17	17	17	
50	0	0	5	0	1	17	
50	0	9	0	0	3	14	17	17	
7	0	5	0	0	3	17	17	17	
5	0	2	0	0	1	17	
10	0	0	0	9	3	16	17	17	
9	0	8	0	0	2	17	17	
0	0	0	0	0	0	
